 &bands
    prefix  = 'SrRhO2',
    outdir='./',
    filband = 'bands.dat'
 /
