&CONTROL
     calculation  = 'scf',
     restart_mode = 'from_scratch',
     prefix = 'pwscf',
     wf_collect   = .true.
     verbosity = 'high'
     pseudo_dir='pseudo/',
     /

&SYSTEM
     A = 5.451, B = 5.451, C = 25.753,
     ibrav=6,
     nat=12,
     ntyp=3,
     ecutwfc=70.0,
     occupations='smearing',
     smearing='gaussian',
     degauss=0.020000,
     /

&ELECTRONS
  electron_maxstep = 100,
  conv_thr =  1.0e-8,
  mixing_beta = 0.5,
  /


ATOMIC_SPECIES
Sr	88.00	Sr.pz-spn-kjpaw_psl.1.0.0.UPF
Rh	103.00	Rh.pz-spn-kjpaw_psl.0.2.3.UPF
O	16.00	O.pz-n-kjpaw_psl.0.1.UPF
ATOMIC_POSITIONS crystal
O	0 0.20592 0
O	0.29408 0 0
O	0 0.79408 0
O	0.70592 0 0
O	0.20592 0.5 0
O	0.5 0.29408 0
O	0.5 0.70592 0
O	0.79408 .5 0
Rh	0.25 0.25 0
Rh	0.75 0.25 0
Rh	0.25 0.75 0
Rh	0.75 0.75 0
K_POINTS automatic
8 8 8 0 0 0
