 &control
    calculation = 'scf'
    prefix='Sr2RhO4',
    pseudo_dir='pseudo/',
    outdir = 'output/',
    restart_mode='from_scratch'
 /
 &system
    ibrav=  6,
    A = 5.451, B = 5.451, C = 25.753,
!Taken from https://materialsproject.org/materials/mp-757102/#
    cosAB = 0.83961986453, cosAC = -0.91975300756, cosBC = -0.91975300756,
    nat=  28, ntyp= 3,
    ecutwfc = 53.5, ecutrho = 120.0,
    lspinorb = .true., noncolin = .true.,
    occupations='smearing', smearing='gaussian',degauss=.02, input_dft='LDA',
    space_group = 142,
 /
 &electrons
  diagonalization	=	'david',
  conv_thr 		= 	1D-5,
  mixing_mode		=	'local-TF',
 /
ATOMIC_SPECIES
Sr	88.00	Sr.pz-spn-kjpaw_psl.1.0.0.UPF
Rh	103.00	Rh.pz-spn-kjpaw_psl.0.2.3.UPF
O	16.00	O.pz-n-kjpaw_psl.0.1.UPF
ATOMIC_POSITIONS {crystal}
Sr	0.0502 	0.6004 	0.6998
Sr	0.1998 	0.8996 	0.5502
Sr	0.3002 	0.1004 	0.9498
Sr	0.4498 	0.3996 	0.8002
Sr	0.5502 	0.6004 	0.1998
Sr	0.6998 	0.8996 	0.0502
Sr	0.8002 	0.1004 	0.4498
Sr	0.9498 	0.3996 	0.3002
Rh	0.125 	0.75 	0.125
Rh	0.375 	0.25 	0.375
Rh	0.625 	0.75 	0.625
Rh	0.875 	0.25 	0.875
O	0.045 	0.5899 	0.205
O	0.0685 	0.25 	0.1815
O	0.1815 	0.25 	0.6815
O	0.205 	0.9101 	0.045
O	0.295 	0.0899 	0.455
O	0.3185 	0.75 	0.4315
O	0.4315 	0.75 	0.9315
O	0.455 	0.4101 	0.295
O	0.545 	0.5899 	0.705
O	0.5685 	0.25 	0.0685
O	0.6815 	0.25 	0.5685
O	0.705 	0.9101 	0.545
O	0.795 	0.0899 	0.955
O	0.8185 	0.75 	0.3185
O	0.9315 	0.75 	0.8185
O	0.955 	0.4101 	0.795
K_POINTS automatic
4 4 4 0 0 0
