 &control
    calculation = 'scf'
    prefix='Sr2RhO4',
    pseudo_dir='pseudo/',
    outdir = 'output/',
    restart_mode='from_scratch'
 /
 &system
    ibrav=  6,
    A = 5.451, B = 5.451, C = 25.753,
!Taken from https://materialsproject.org/materials/mp-757102/#
    cosAB = 0.83961986453, cosAC = -0.91975300756, cosBC = -0.91975300756,
    nat=  28, ntyp= 3,
    ecutwfc = 53.5, ecutrho = 120.0,
    lspinorb = .true., noncolin = .true.,
    occupations='smearing', smearing='gaussian',degauss=.02, input_dft='LDA',
    space_group = 142,
 /
 &electrons
  diagonalization	=	'david',
  conv_thr 		= 	1D-5,
  mixing_mode		=	'local-TF',
 /
ATOMIC_SPECIES
Sr	88.00	Sr.pz-spn-kjpaw_psl.1.0.0.UPF
Rh	103.00	Rh.pz-spn-kjpaw_psl.0.2.3.UPF
O	16.00	O.pz-n-kjpaw_psl.0.1.UPF
ATOMIC_POSITIONS {crystal}
O	0.25 0.25 0
O	0.25 0.75 0
O	0.75 0.25 0
O	0.75 0.75 0
O	0 0.20592 0.125
O	0.29408 0 0.125
O	0 0.79408 0.125
O	0.70592 0 0.125
O	0.20592 0.5 0.125
O	0.5 0.29408 0.125
O	0.5 0.70592 0.125
O	0.79408 .5 0.125
O	0.25 0.25 0.25
O	0.25 0.75 0.25
O	0.75 0.25 0.25
O	0.75 0.75 0.25
Rh	0.25 0.25 0.125
Rh	0.75 0.25 0.125
Rh	0.25 0.75 0.125
Rh	0.75 0.75 0.125
Sr	0.5 0.5 0
Sr	0.5 0.5 0.25
K_POINTS automatic
4 4 4 0 0 0
