 &projwfc
    outdir='./',
    prefix='SrRhO2',
    ngauss=0, degauss=0.02,
    DeltaE=0.01,
    kresolveddos=.true.,
    filpdos='SrRhO2.k'
 /
