&CONTROL
     calculation  = 'bands',
     restart_mode = 'from_scratch',
     prefix = 'SrRhO2',
     wf_collect   = .true.,
     pseudo_dir='pseudo/',
     /

&SYSTEM
     A = 5.451, B = 5.451, C = 25.753,
     space_group=142,
     nat=4,
     ntyp=4,
     ecutwfc=74.0,
     occupations='smearing',
     smearing='gaussian',
     degauss=0.020000,
     /

&ELECTRONS
  conv_thr =  1.0e-5,
  mixing_beta = 0.5,
  /
ATOMIC_SPECIES
Sr	88.00	Sr.pz-spn-kjpaw_psl.1.0.0.UPF
Rh	103.00	Rh.pz-spn-kjpaw_psl.0.2.3.UPF
O1	16.00	O.pz-n-kjpaw_psl.0.1.UPF
O2	16.00	O.pz-n-kjpaw_psl.0.1.UPF
ATOMIC_POSITIONS crystal_sg
Sr 32g .5 0 .573
Rh 8a 
O1 16d .4205
O2 16f .206
K_POINTS {crystal}
157
0.0 0.0 0.0 1
0.01282051282051282 0.01282051282051282 0.0 1
0.02564102564102564 0.02564102564102564 0.0 1
0.038461538461538464 0.038461538461538464 0.0 1
0.05128205128205128 0.05128205128205128 0.0 1
0.0641025641025641 0.0641025641025641 0.0 1
0.07692307692307693 0.07692307692307693 0.0 1
0.08974358974358974 0.08974358974358974 0.0 1
0.10256410256410256 0.10256410256410256 0.0 1
0.11538461538461538 0.11538461538461538 0.0 1
0.1282051282051282 0.1282051282051282 0.0 1
0.14102564102564102 0.14102564102564102 0.0 1
0.15384615384615385 0.15384615384615385 0.0 1
0.16666666666666666 0.16666666666666666 0.0 1
0.1794871794871795 0.1794871794871795 0.0 1
0.1923076923076923 0.1923076923076923 0.0 1
0.20512820512820512 0.20512820512820512 0.0 1
0.21794871794871795 0.21794871794871795 0.0 1
0.23076923076923075 0.23076923076923075 0.0 1
0.24358974358974358 0.24358974358974358 0.0 1
0.2564102564102564 0.2564102564102564 0.0 1
0.2692307692307692 0.2692307692307692 0.0 1
0.28205128205128205 0.28205128205128205 0.0 1
0.2948717948717949 0.2948717948717949 0.0 1
0.3076923076923077 0.3076923076923077 0.0 1
0.3205128205128205 0.3205128205128205 0.0 1
0.3333333333333333 0.3333333333333333 0.0 1
0.34615384615384615 0.34615384615384615 0.0 1
0.358974358974359 0.358974358974359 0.0 1
0.3717948717948718 0.3717948717948718 0.0 1
0.3846153846153846 0.3846153846153846 0.0 1
0.3974358974358974 0.3974358974358974 0.0 1
0.41025641025641024 0.41025641025641024 0.0 1
0.4230769230769231 0.4230769230769231 0.0 1
0.4358974358974359 0.4358974358974359 0.0 1
0.4487179487179487 0.4487179487179487 0.0 1
0.4615384615384615 0.4615384615384615 0.0 1
0.47435897435897434 0.47435897435897434 0.0 1
0.48717948717948717 0.48717948717948717 0.0 1
0.5 0.5 0.0 1
0.48717948717948717 0.48717948717948717 0.01282051282051282 1
0.47435897435897434 0.47435897435897434 0.02564102564102564 1
0.46153846153846156 0.46153846153846156 0.038461538461538464 1
0.44871794871794873 0.44871794871794873 0.05128205128205128 1
0.4358974358974359 0.4358974358974359 0.0641025641025641 1
0.4230769230769231 0.4230769230769231 0.07692307692307693 1
0.41025641025641024 0.41025641025641024 0.08974358974358974 1
0.39743589743589747 0.39743589743589747 0.10256410256410256 1
0.38461538461538464 0.38461538461538464 0.11538461538461538 1
0.3717948717948718 0.3717948717948718 0.1282051282051282 1
0.358974358974359 0.358974358974359 0.14102564102564102 1
0.34615384615384615 0.34615384615384615 0.15384615384615385 1
0.33333333333333337 0.33333333333333337 0.16666666666666666 1
0.3205128205128205 0.3205128205128205 0.1794871794871795 1
0.3076923076923077 0.3076923076923077 0.1923076923076923 1
0.2948717948717949 0.2948717948717949 0.20512820512820512 1
0.28205128205128205 0.28205128205128205 0.21794871794871795 1
0.2692307692307693 0.2692307692307693 0.23076923076923075 1
0.2564102564102564 0.2564102564102564 0.24358974358974358 1
0.2435897435897436 0.2435897435897436 0.2564102564102564 1
0.23076923076923078 0.23076923076923078 0.2692307692307692 1
0.21794871794871795 0.21794871794871795 0.28205128205128205 1
0.20512820512820512 0.20512820512820512 0.2948717948717949 1
0.1923076923076923 0.1923076923076923 0.3076923076923077 1
0.17948717948717952 0.17948717948717952 0.3205128205128205 1
0.16666666666666669 0.16666666666666669 0.3333333333333333 1
0.15384615384615385 0.15384615384615385 0.34615384615384615 1
0.14102564102564102 0.14102564102564102 0.358974358974359 1
0.1282051282051282 0.1282051282051282 0.3717948717948718 1
0.11538461538461542 0.11538461538461542 0.3846153846153846 1
0.10256410256410259 0.10256410256410259 0.3974358974358974 1
0.08974358974358976 0.08974358974358976 0.41025641025641024 1
0.07692307692307693 0.07692307692307693 0.4230769230769231 1
0.0641025641025641 0.0641025641025641 0.4358974358974359 1
0.05128205128205132 0.05128205128205132 0.4487179487179487 1
0.03846153846153849 0.03846153846153849 0.4615384615384615 1
0.02564102564102566 0.02564102564102566 0.47435897435897434 1
0.01282051282051283 0.01282051282051283 0.48717948717948717 1
0.0 0.0 0.5 1
0.0 0.01282051282051282 0.48717948717948717 1
0.0 0.02564102564102564 0.47435897435897434 1
0.0 0.038461538461538464 0.46153846153846156 1
0.0 0.05128205128205128 0.44871794871794873 1
0.0 0.0641025641025641 0.4358974358974359 1
0.0 0.07692307692307693 0.4230769230769231 1
0.0 0.08974358974358974 0.41025641025641024 1
0.0 0.10256410256410256 0.39743589743589747 1
0.0 0.11538461538461538 0.38461538461538464 1
0.0 0.1282051282051282 0.3717948717948718 1
0.0 0.14102564102564102 0.358974358974359 1
0.0 0.15384615384615385 0.34615384615384615 1
0.0 0.16666666666666666 0.33333333333333337 1
0.0 0.1794871794871795 0.3205128205128205 1
0.0 0.1923076923076923 0.3076923076923077 1
0.0 0.20512820512820512 0.2948717948717949 1
0.0 0.21794871794871795 0.28205128205128205 1
0.0 0.23076923076923075 0.2692307692307693 1
0.0 0.24358974358974358 0.2564102564102564 1
0.0 0.2564102564102564 0.2435897435897436 1
0.0 0.2692307692307692 0.23076923076923078 1
0.0 0.28205128205128205 0.21794871794871795 1
0.0 0.2948717948717949 0.20512820512820512 1
0.0 0.3076923076923077 0.1923076923076923 1
0.0 0.3205128205128205 0.17948717948717952 1
0.0 0.3333333333333333 0.16666666666666669 1
0.0 0.34615384615384615 0.15384615384615385 1
0.0 0.358974358974359 0.14102564102564102 1
0.0 0.3717948717948718 0.1282051282051282 1
0.0 0.3846153846153846 0.11538461538461542 1
0.0 0.3974358974358974 0.10256410256410259 1
0.0 0.41025641025641024 0.08974358974358976 1
0.0 0.4230769230769231 0.07692307692307693 1
0.0 0.4358974358974359 0.0641025641025641 1
0.0 0.4487179487179487 0.05128205128205132 1
0.0 0.4615384615384615 0.03846153846153849 1
0.0 0.47435897435897434 0.02564102564102566 1
0.0 0.48717948717948717 0.01282051282051283 1
0.0 0.5 0.0 1
0.0 0.48717948717948717 0.0 1
0.0 0.47435897435897434 0.0 1
0.0 0.46153846153846156 0.0 1
0.0 0.44871794871794873 0.0 1
0.0 0.4358974358974359 0.0 1
0.0 0.4230769230769231 0.0 1
0.0 0.41025641025641024 0.0 1
0.0 0.39743589743589747 0.0 1
0.0 0.38461538461538464 0.0 1
0.0 0.3717948717948718 0.0 1
0.0 0.358974358974359 0.0 1
0.0 0.34615384615384615 0.0 1
0.0 0.33333333333333337 0.0 1
0.0 0.3205128205128205 0.0 1
0.0 0.3076923076923077 0.0 1
0.0 0.2948717948717949 0.0 1
0.0 0.28205128205128205 0.0 1
0.0 0.2692307692307693 0.0 1
0.0 0.2564102564102564 0.0 1
0.0 0.2435897435897436 0.0 1
0.0 0.23076923076923078 0.0 1
0.0 0.21794871794871795 0.0 1
0.0 0.20512820512820512 0.0 1
0.0 0.1923076923076923 0.0 1
0.0 0.17948717948717952 0.0 1
0.0 0.16666666666666669 0.0 1
0.0 0.15384615384615385 0.0 1
0.0 0.14102564102564102 0.0 1
0.0 0.1282051282051282 0.0 1
0.0 0.11538461538461542 0.0 1
0.0 0.10256410256410259 0.0 1
0.0 0.08974358974358976 0.0 1
0.0 0.07692307692307693 0.0 1
0.0 0.0641025641025641 0.0 1
0.0 0.05128205128205132 0.0 1
0.0 0.03846153846153849 0.0 1
0.0 0.02564102564102566 0.0 1
0.0 0.01282051282051283 0.0 1
0.0 0.0 0.0 1

