&CONTROL
     calculation  = 'scf',
     restart_mode = 'from_scratch',
     prefix = 'SrRhO2',
     wf_collect   = .true.,
     pseudo_dir='pseudo/',
     /

&SYSTEM
     A = 5.451, B = 5.451, C = 25.753,
     space_group=142,
     nat=4,
     ntyp=4,
     ecutwfc=74.0,
     occupations='smearing',
     smearing='gaussian',
     degauss=0.020000,
     noncolin= .TRUE.,
     lspinorb= .TRUE.,
     /

&ELECTRONS
  conv_thr =  1.0e-5,
  mixing_beta = 0.5,
  /
ATOMIC_SPECIES
Sr	88.00	Sr.pz-spn-kjpaw_psl.1.0.0.UPF
Rh	103.00	Rh.pz-spn-kjpaw_psl.0.2.3.UPF
O1	16.00	O.pz-n-kjpaw_psl.0.1.UPF
O2	16.00	O.pz-n-kjpaw_psl.0.1.UPF
ATOMIC_POSITIONS crystal_sg
Sr 32g .5 0 .573
Rh 8a 
O1 16d .4205
O2 16f .206
K_POINTS automatic
10 10 10 0 0 0
