 &projwfc
    outdir='./'
    prefix='SrRhO2'
    Emin=5.0, Emax=25.0, DeltaE=0.01
    ngauss=1, degauss=0.02
 /
